Gurobi 12.0.3:   lim:time = 14400

  mip:bestbound = 1

Set parameter LogToConsole to value 1

  tech:outlev = 1

Set parameter Cuts to value 3

  cut:cuts = 3

Set parameter Presolve to value 2

  pre:solve = 2

Set parameter MIPFocus to value 2

  mip:focus = 2

Set parameter Symmetry to value 2

  mip:symmetry = 2

Set parameter InfUnbdInfo to value 1

Gurobi Optimizer version 12.0.3 build v12.0.3rc0 (win64 - Windows 11+.0 (26200.2))



CPU model: 13th Gen Intel(R) Core(TM) i7-13700K, instruction set [SSE2|AVX|AVX2]

Thread count: 16 physical cores, 24 logical processors, using up to 24 threads



Non-default parameters:

TimeLimit  14400

MIPFocus  2

Symmetry  2

Cuts  3

InfUnbdInfo  1

Presolve  2



Optimize a model with 406 rows, 743 columns and 4193 nonzeros

Model fingerprint: 0xbedef28b

Model has 3 quadratic objective terms

Model has 8 quadratic constraints

Variable types: 34 continuous, 709 integer (0 binary)

Coefficient statistics:

  Matrix range     [1e+00, 1e+05]

  QMatrix range    [1e+00, 1e+00]

  QLMatrix range   [1e+00, 1e+01]

  Objective range  [3e+00, 1e+02]

  QObjective range [2e+00, 2e+00]

  Bounds range     [1e+00, 1e+02]

  RHS range        [1e+00, 1e+05]

  QRHS range       [1e+02, 1e+02]

Presolve removed 40 rows and 89 columns

Presolve time: 0.14s

Presolved: 867 rows, 1101 columns, 6486 nonzeros

Variable types: 153 continuous, 948 integer (854 binary)

Root relaxation presolve removed 31 rows and 0 columns

Root relaxation presolved: 566 rows, 891 columns, 8007 nonzeros





Root relaxation: objective 8.780590e+01, 73 iterations, 0.02 seconds (0.01 work units)



    Nodes    |    Current Node    |     Objective Bounds      |     Work

 Expl Unexpl |  Obj  Depth IntInf | Incumbent    BestBd   Gap | It/Node Time



     0     0   87.80590    0   44          -   87.80590      -     -    0s

H    0     0                     528.5600000   87.80590  83.4%     -    0s

H    0     0                     496.9200000   87.80590  82.3%     -    0s

     0     0  147.48300    0   41  496.92000  147.48300  70.3%     -    0s

     0     0  147.48300    0   42  496.92000  147.48300  70.3%     -    0s

     0     0  147.48300    0   38  496.92000  147.48300  70.3%     -    0s

H    0     0                     493.2700000  150.13003  69.6%     -    0s

H    0     0                     435.7600000  150.13003  65.5%     -    0s

     0     0  152.81030    0   58  435.76000  152.81030  64.9%     -    0s

     0     0  152.81030    0   65  435.76000  152.81030  64.9%     -    0s

     0     0  153.62088    0   70  435.76000  153.62088  64.7%     -    0s

     0     0  153.62088    0   70  435.76000  153.62088  64.7%     -    0s

H    0     0                     435.5200000  153.62088  64.7%     -    0s

H    0     0                     427.5700000  153.62088  64.1%     -    0s

H    0     0                     427.3600000  153.62088  64.1%     -    0s

H    0     0                     408.5700000  163.62497  60.0%     -    0s

H    0     0                     400.2900000  163.62497  59.1%     -    0s

H    0     0                     386.2500000  163.62497  57.6%     -    0s

     0     0  168.15100    0   78  386.25000  168.15100  56.5%     -    0s

H    0     0                     369.8800000  169.84586  54.1%     -    0s

     0     0  173.23157    0   80  369.88000  173.23157  53.2%     -    0s

     0     0  173.23157    0   84  369.88000  173.23157  53.2%     -    0s

     0     0  175.04000    0   90  369.88000  175.04000  52.7%     -    1s

     0     0  175.04000    0   82  369.88000  175.04000  52.7%     -    1s

H    0     0                     328.1100000  175.04000  46.7%     -    1s

H    0     0                     326.0100000  175.18905  46.3%     -    1s

     0     0  180.46862    0   66  326.01000  180.46862  44.6%     -    1s

     0     0  180.58678    0   84  326.01000  180.58678  44.6%     -    1s

H    0     0                     325.2800000  180.58678  44.5%     -    1s

     0     0  182.02000    0   14  325.28000  182.02000  44.0%     -    1s

     0     0  182.02000    0   14  325.28000  182.02000  44.0%     -    1s

     0     0  183.77872    0   24  325.28000  183.77872  43.5%     -    1s

     0     0  183.98396    0   24  325.28000  183.98396  43.4%     -    1s

     0     2  184.35000    0   24  325.28000  184.35000  43.3%     -    1s

H  911   438                     323.4100000  188.04589  41.9%  20.0    2s

H  963   471                     323.1600000  188.39239  41.7%  20.6    2s

  8034  1491  257.35421   21   38  323.16000  237.75758  26.4%  20.9    5s



Cutting planes:

  Learned: 8

  Gomory: 31

  Lift-and-project: 7

  Cover: 14

  Implied bound: 91

  Projected implied bound: 12

  Clique: 20

  MIR: 51

  Mixing: 7

  StrongCG: 7

  Flow cover: 198

  GUB cover: 1

  Inf proof: 12

  Zero half: 78

  RLT: 45

  Relax-and-lift: 29



Explored 25036 nodes (453261 simplex iterations) in 7.30 seconds (7.79 work units)

Thread count was 24 (of 24 available processors)



Solution count 10: 323.16 323.41 325.28 ... 427.36



Optimal solution found (tolerance 1.00e-04)

Best objective 3.231600000000e+02, best bound 3.231600000000e+02, gap 0.0000%



AMPL MP initial flat model has 743 variables (0 integer, 709 binary);

Objectives: 1 quadratic; 

Constraints:  406 linear; 8 quadratic;



AMPL MP final model has 743 variables (0 integer, 709 binary);

Objectives: 1 quadratic; 

Constraints:  406 linear; 8 quadratic;





-----RESULTS INFO-----
running_time:  7.391000000000001
TC.best_bound:  323.16
TC:  323.16
MIP Gap (%):  0
=== Vehicle Routes ===
Vehicle 1: 0 → 1
Vehicle 1: 1 → 9
Vehicle 1: 3 → 19
Vehicle 1: 9 → 18
Vehicle 1: 12 → 3
Vehicle 1: 18 → 12
Vehicle 2: 0 → 2
Vehicle 2: 2 → 14
Vehicle 2: 14 → 19
Vehicle 3: 0 → 19
Vehicle 4: 0 → 19

=== Full Vehicle Routes ===
Vehicle 1: 0 → 1 → 9 → 18 → 12 → 3 → 0 (70<100)
Vehicle 2: 0 → 2 → 14 → 0 (83<100)
Vehicle 3: 0 → 0 (0<100)
Vehicle 4: 0 → 0 (0<100)
Arc used by MRT line: y variables:
MRT used: 12 → 13
Customer assigment to PL: u variables:
4 14
5 14
6 14
7 14
8 18
10 13
11 14
Node is served by regular vehicle: g variables:
1
2
3
9
18
12
14
Customer assigment to Home delivery: gm variables:
1
2
3
9
Node total demands: ntd variables:
1 13 1
2 13 1
3 12 1
8 0 0
9 10 1
10 0 0
11 0 0
18 23 1
12 12 1
13 0 0
14 70 1
15 0 0
16 0 0
17 0 0
Customer's demand delivered to PL: l variables:
4
5
6
7
8
10
11
Lockers load <= capacity:
23 <= 79
0 <= 81
12 <= 83
70 <= 100
0 <= 99
0 <= 94
0 <= 86
